
===== New CPLEX run =====
Instance: /home/yorig/tuner/mpils-tests/instances/miplib/easy/mas74.mps
Config: /scratch/yorig/mpils-results-grid-seconds-5-watchdog/easy/8proc/seed-2/5_mas74_seed-2_20260504_031955/expansion/config_param_CPXPARAM_Simplex_DGradient_2_iter_3.prm
========================

Selected objective sense:  MINIMIZE
Selected objective  name:  obj
Selected RHS        name:  rhs
Selected bound      name:  bnd
Wall watchdog: enabled factor=1 grace=1 limit=6 seconds
Version identifier: 22.1.2.0 | 2024-11-26 | 0edbb82fd
CPXPARAM_Simplex_DGradient                       2
CPXPARAM_Preprocessing_Dual                      1
CPXPARAM_Threads                                 8
CPXPARAM_Parallel                                1
CPXPARAM_MIP_Cuts_Cliques                        1
CPXPARAM_MIP_Cuts_FlowCovers                     -1
CPXPARAM_MIP_Cuts_Implied                        2
CPXPARAM_MIP_Limits_GomoryCand                   25
CPXPARAM_MIP_Cuts_PathCut                        1
CPXPARAM_MIP_Cuts_MIRCut                         2
CPXPARAM_MIP_Cuts_Disjunctive                    1
CPXPARAM_Emphasis_MIP                            3
CPXPARAM_MIP_Strategy_RINSHeur                   -1
CPXPARAM_TimeLimit                               5
CPXPARAM_MIP_Limits_CutsFactor                   1
Found incumbent of value 157344.610330 after 0.00 sec. (0.02 ticks)
Tried aggregator 1 time.
MIP Presolve eliminated 0 rows and 3 columns.
Reduced MIP has 13 rows, 148 columns, and 1682 nonzeros.
Reduced MIP has 145 binaries, 2 generals, 0 SOSs, and 0 indicators.
Presolve time = 0.00 sec. (0.84 ticks)
Probing time = 0.00 sec. (0.09 ticks)
Tried aggregator 1 time.
Detecting symmetries...
Reduced MIP has 13 rows, 148 columns, and 1682 nonzeros.
Reduced MIP has 145 binaries, 2 generals, 0 SOSs, and 0 indicators.
Presolve time = 0.00 sec. (0.79 ticks)
Probing time = 0.00 sec. (0.09 ticks)
MIP emphasis: best bound.
MIP search method: dynamic search.
Parallel mode: deterministic, using up to 8 threads.
Root relaxation solution time = 0.00 sec. (2.98 ticks)

        Nodes                                         Cuts/
   Node  Left     Objective  IInf  Best Integer    Best Bound    ItCnt     Gap

*     0+    0                       157344.6103        0.0000           100.00%
*     0+    0                        51840.4943        0.0000           100.00%
      0     0    10482.7953    12    51840.4943    10482.7953      113   79.78%
*     0+    0                        19197.4680    10482.7953            45.39%
*     0+    0                        15240.3317    10482.7953            31.22%
*     0+    0                        14372.8713    10482.7953            27.07%
Detecting symmetries...
      0     2    10482.7953    12    14372.8713    10513.0180      113   26.86%
Elapsed time = 0.01 sec. (9.25 ticks, tree = 0.02 MB, solutions = 5)
*     5+    1                        13279.7434    10526.8584            20.73%
*    20+    7                        12915.1000    10526.8584            18.49%
*   408+  281                        12722.7434    10637.5738            16.39%
*  1008+  667                        12536.2311    10655.9893            15.00%
*  1061+  637                        12517.9319    10700.0198            14.52%

Performing restart 1

Repeating presolve.
Tried aggregator 1 time.
MIP Presolve eliminated 0 rows and 33 columns.
Reduced MIP has 13 rows, 115 columns, and 1256 nonzeros.
Reduced MIP has 112 binaries, 2 generals, 0 SOSs, and 0 indicators.
Presolve time = 0.00 sec. (0.45 ticks)
Tried aggregator 1 time.
Reduced MIP has 13 rows, 115 columns, and 1256 nonzeros.
Reduced MIP has 112 binaries, 2 generals, 0 SOSs, and 0 indicators.
Presolve time = 0.00 sec. (0.57 ticks)
Represolve time = 0.00 sec. (1.40 ticks)
*  2571+  125                        12464.1000    10747.9884            13.77%
*  2936+  405                        12039.4680    10747.9884            10.73%
  15625 11689    11148.9032    11    12039.4680    10986.5557    85695    8.75%

Performing restart 2

Repeating presolve.
Tried aggregator 1 time.
MIP Presolve eliminated 0 rows and 11 columns.
Reduced MIP has 13 rows, 104 columns, and 1119 nonzeros.
Reduced MIP has 102 binaries, 1 generals, 0 SOSs, and 0 indicators.
Presolve time = 0.00 sec. (0.38 ticks)
Tried aggregator 1 time.
Reduced MIP has 13 rows, 104 columns, and 1119 nonzeros.
Reduced MIP has 102 binaries, 1 generals, 0 SOSs, and 0 indicators.
Presolve time = 0.00 sec. (0.50 ticks)
Represolve time = 0.01 sec. (1.43 ticks)
  36689    74    10758.2948    12    12039.4680    11097.6027   223512    7.82%
* 47040+ 9467                        11931.6944    11097.6027             6.99%
  57587 19382    11172.3076    12    11931.6944    11097.6027   343393    6.99%
* 67899+28209                        11801.1857    11108.1731             5.87%
  79289 37895    11209.4430    11    11801.1857    11148.7495   465310    5.53%
 100496 57533    11229.8454    11    11801.1857    11208.4944   593515    5.02%
 121367 74805    11296.2885    12    11801.1857    11244.3902   708352    4.72%
 142100 91901    11297.0785    11    11801.1857    11274.0284   824275    4.47%
 162882 110049    11366.5944    12    11801.1857    11297.6673   949770    4.27%
 183657 124954    11542.5485    12    11801.1857    11317.7003  1053611    4.10%
 265596 187914    11423.7085     9    11801.1857    11379.3579  1508026    3.57%
Elapsed time = 3.51 sec. (3108.86 ticks, tree = 80.26 MB, solutions = 21)
 334677 236937    11497.4165    11    11801.1857    11417.2091  1881978    3.25%

Clique cuts applied:  0
Implied bound cuts applied:  0
Mixed integer rounding cuts applied:  0
Flow path cuts applied:  0
Disjunctive cuts applied:  0
Cone linearizations applied:  0

Root node processing (before b&c):
  Real time             =    0.01 sec. (9.22 ticks)
Parallel b&c, 8 threads:
  Real time             =    4.99 sec. (4263.50 ticks)
  Sync time (average)   =    0.93 sec.
  Wait time (average)   =    0.00 sec.
                          ------------
Total (root+branch&cut) =    5.00 sec. (4272.72 ticks)
Gap: 3.21%
Upper bound: 11801.2
Lower bound: 11422.1
Termination status: Normal
End of CPLEX run. Time: 5.00277 seconds
